15	4	2
3257	3257	3257	3257	
173	635	683	
268	320	393	
806	862	1292	
375	370	522	
924	449	647	
75	205	293	
931	175	270	
474	758	1501	
637	354	601	
662	518	946	
925	531	952	
364	516	909	
838	155	234	
524	47	90	
800	619	1161	
